(set-logic HORN)
(declare-fun assign_193_25_5_abs01 (Int Int Int Int Int Int) Bool)
(declare-fun assert_184_24_5_abs01 (Int Int Int Int Int Int) Bool)
(declare-fun assert_166_23_12_abs01 (Int Int Int Int Int Int) Bool)
(declare-fun while_196_22_1_abs01 (Int Int Int Int Int Int) Bool)
(declare-fun assign_128_21_1_abs01 (Int Int Int Int Int Int) Bool)
(declare-fun assign_119_18_5_abs01 (Int Int Int Int Int Int) Bool)
(declare-fun arrayassign_110_17_5_abs01 (Int Int Int Int Int Int) Bool)
(declare-fun assert_96_16_12_abs01 (Int Int Int Int Int Int) Bool)
(declare-fun while_122_15_1_abs01 (Int Int Int Int Int Int) Bool)
(declare-fun assign_58_14_1_abs01 (Int Int Int Int Int Int) Bool)
(declare-fun assign_52_12_1_abs01 (Int Int Int Int Int Int) Bool)
(declare-fun end_abs01 (Int Int Int Int Int Int) Bool)
(declare-fun start_abs01 (Int Int Int Int Int Int) Bool)
(assert (forall ((a_copy (Array Int Int)) (a (Array Int Int)) (N Int) (i Int) (vabs_f_f Int) (vabs_s_f_f Int)) (start_abs01 vabs_f_f (select a_copy vabs_f_f) vabs_s_f_f (select a vabs_s_f_f) N i)))
(assert (forall ((i Int) (N Int) (a (Array Int Int)) (a_copy (Array Int Int)) (vabs_0_f_f Int) (vabs_0_s_f_f Int)) (=> (start_abs01 vabs_0_f_f (select a_copy vabs_0_f_f) vabs_0_s_f_f (select a vabs_0_s_f_f) N i) (assign_52_12_1_abs01 vabs_0_f_f (select a_copy vabs_0_f_f) vabs_0_s_f_f (select a vabs_0_s_f_f) N i))))
(assert (forall ((rnd Int) (i Int) (N Int) (a (Array Int Int)) (a_copy (Array Int Int)) (vabs_0_f_f Int) (vabs_0_s_f_f Int)) (=> (assign_52_12_1_abs01 vabs_0_f_f (select a_copy vabs_0_f_f) vabs_0_s_f_f (select a vabs_0_s_f_f) N i) (assign_58_14_1_abs01 vabs_0_f_f (select a_copy vabs_0_f_f) vabs_0_s_f_f (select a vabs_0_s_f_f) rnd i))))
(assert (forall ((i Int) (N Int) (a (Array Int Int)) (a_copy (Array Int Int)) (vabs_0_f_f Int) (vabs_0_s_f_f Int)) (=> (assign_58_14_1_abs01 vabs_0_f_f (select a_copy vabs_0_f_f) vabs_0_s_f_f (select a vabs_0_s_f_f) N i) (while_122_15_1_abs01 vabs_0_f_f (select a_copy vabs_0_f_f) vabs_0_s_f_f (select a vabs_0_s_f_f) N 0))))
(assert (forall ((a_copy (Array Int Int)) (a (Array Int Int)) (N Int) (i Int) (vabs_0_f_f Int) (vabs_0_s_f_f Int)) (=> (and (while_122_15_1_abs01 vabs_0_f_f (select a_copy vabs_0_f_f) vabs_0_s_f_f (select a vabs_0_s_f_f) N i) (< i N)) (assert_96_16_12_abs01 vabs_0_f_f (select a_copy vabs_0_f_f) vabs_0_s_f_f (select a vabs_0_s_f_f) N i))))
(assert (forall ((a_copy (Array Int Int)) (a (Array Int Int)) (N Int) (i Int) (vabs_0_f_f Int) (vabs_0_s_f_f Int)) (=> (and (while_122_15_1_abs01 vabs_0_f_f (select a_copy vabs_0_f_f) vabs_0_s_f_f (select a vabs_0_s_f_f) N i) (not (< i N))) (assign_128_21_1_abs01 vabs_0_f_f (select a_copy vabs_0_f_f) vabs_0_s_f_f (select a vabs_0_s_f_f) N i))))
(assert (forall ((k Int) (i Int) (N Int) (a (Array Int Int)) (a_copy (Array Int Int))) (=> (and (assert_96_16_12_abs01 k (select a_copy k) k (select a k) N i) (<= 0 k) (< k i)) (= (select a_copy k) (select a k)))))
(assert (forall ((i Int) (N Int) (a (Array Int Int)) (a_copy (Array Int Int)) (vabs_0_f_f Int) (vabs_0_s_f_f Int)) (=> (assert_96_16_12_abs01 vabs_0_f_f (select a_copy vabs_0_f_f) vabs_0_s_f_f (select a vabs_0_s_f_f) N i) (arrayassign_110_17_5_abs01 vabs_0_f_f (select a_copy vabs_0_f_f) vabs_0_s_f_f (select a vabs_0_s_f_f) N i))))
(assert (forall ((i Int) (N Int) (a (Array Int Int)) (a_copy (Array Int Int)) (vabs_0_f_f Int) (vabs_0_s_f_f Int)) (=> (and (arrayassign_110_17_5_abs01 vabs_0_f_f (select a_copy vabs_0_f_f) vabs_0_s_f_f (select a vabs_0_s_f_f) N i) (arrayassign_110_17_5_abs01 vabs_0_f_f (select a_copy vabs_0_f_f) i (select a i) N i)) (assign_119_18_5_abs01 vabs_0_f_f (select (store a_copy i (select a i)) vabs_0_f_f) vabs_0_s_f_f (select a vabs_0_s_f_f) N i))))
(assert (forall ((i Int) (N Int) (a (Array Int Int)) (a_copy (Array Int Int)) (vabs_0_f_f Int) (vabs_0_s_f_f Int)) (=> (assign_119_18_5_abs01 vabs_0_f_f (select a_copy vabs_0_f_f) vabs_0_s_f_f (select a vabs_0_s_f_f) N i) (while_122_15_1_abs01 vabs_0_f_f (select a_copy vabs_0_f_f) vabs_0_s_f_f (select a vabs_0_s_f_f) N (+ i 1)))))
(assert (forall ((i Int) (N Int) (a (Array Int Int)) (a_copy (Array Int Int)) (vabs_0_f_f Int) (vabs_0_s_f_f Int)) (=> (assign_128_21_1_abs01 vabs_0_f_f (select a_copy vabs_0_f_f) vabs_0_s_f_f (select a vabs_0_s_f_f) N i) (while_196_22_1_abs01 vabs_0_f_f (select a_copy vabs_0_f_f) vabs_0_s_f_f (select a vabs_0_s_f_f) N 0))))
(assert (forall ((a_copy (Array Int Int)) (a (Array Int Int)) (N Int) (i Int) (vabs_0_f_f Int) (vabs_0_s_f_f Int)) (=> (and (while_196_22_1_abs01 vabs_0_f_f (select a_copy vabs_0_f_f) vabs_0_s_f_f (select a vabs_0_s_f_f) N i) (< i N)) (assert_166_23_12_abs01 vabs_0_f_f (select a_copy vabs_0_f_f) vabs_0_s_f_f (select a vabs_0_s_f_f) N i))))
(assert (forall ((a_copy (Array Int Int)) (a (Array Int Int)) (N Int) (i Int) (vabs_0_f_f Int) (vabs_0_s_f_f Int)) (=> (and (while_196_22_1_abs01 vabs_0_f_f (select a_copy vabs_0_f_f) vabs_0_s_f_f (select a vabs_0_s_f_f) N i) (not (< i N))) (end_abs01 vabs_0_f_f (select a_copy vabs_0_f_f) vabs_0_s_f_f (select a vabs_0_s_f_f) N i))))
(assert (forall ((k Int) (i Int) (N Int) (a (Array Int Int)) (a_copy (Array Int Int))) (=> (and (assert_166_23_12_abs01 k (select a_copy k) k (select a k) N i) (<= 0 k) (< k N)) (= (select a_copy k) (select a k)))))
(assert (forall ((i Int) (N Int) (a (Array Int Int)) (a_copy (Array Int Int)) (vabs_0_f_f Int) (vabs_0_s_f_f Int)) (=> (assert_166_23_12_abs01 vabs_0_f_f (select a_copy vabs_0_f_f) vabs_0_s_f_f (select a vabs_0_s_f_f) N i) (assert_184_24_5_abs01 vabs_0_f_f (select a_copy vabs_0_f_f) vabs_0_s_f_f (select a vabs_0_s_f_f) N i))))
(assert (forall ((i Int) (N Int) (a (Array Int Int)) (a_copy (Array Int Int))) (=> (assert_184_24_5_abs01 i (select a_copy i) i (select a i) N i) (= (select a_copy i) (select a i)))))
(assert (forall ((i Int) (N Int) (a (Array Int Int)) (a_copy (Array Int Int)) (vabs_0_f_f Int) (vabs_0_s_f_f Int)) (=> (assert_184_24_5_abs01 vabs_0_f_f (select a_copy vabs_0_f_f) vabs_0_s_f_f (select a vabs_0_s_f_f) N i) (assign_193_25_5_abs01 vabs_0_f_f (select a_copy vabs_0_f_f) vabs_0_s_f_f (select a vabs_0_s_f_f) N i))))
(assert (forall ((i Int) (N Int) (a (Array Int Int)) (a_copy (Array Int Int)) (vabs_0_f_f Int) (vabs_0_s_f_f Int)) (=> (assign_193_25_5_abs01 vabs_0_f_f (select a_copy vabs_0_f_f) vabs_0_s_f_f (select a vabs_0_s_f_f) N i) (while_196_22_1_abs01 vabs_0_f_f (select a_copy vabs_0_f_f) vabs_0_s_f_f (select a vabs_0_s_f_f) N (+ i 1)))))
(check-sat)